27	3

10	10	10	

0	0	0	0	3	2	3	4	
4	3	5	2	2	6	7	
8	5	4	3	2	5	8	
5	5	2	2	2	5	6	
1	4	1	4	2	9	12	
2	5	5	4	2	9	10	
3	3	5	2	2	9	10	
2	2	4	4	2	11	12	
3	3	2	2	2	13	14	
5	3	2	4	2	13	16	
2	3	3	2	2	14	15	
4	4	1	4	1	13	
2	1	4	4	1	20	
2	2	2	2	1	17	
7	5	5	4	1	19	
2	1	5	4	2	17	18	
2	4	5	4	1	21	
2	3	2	3	1	23	
1	5	3	3	1	22	
7	2	4	6	2	21	24	
2	1	6	2	1	26	
4	3	2	1	1	25	
8	1	0	4	1	25	
4	2	2	1	1	25	
3	0	1	3	1	27	
1	2	2	2	1	27	
0	0	0	0	0	
